10  5
  0  10  1  96  2  75  3  71  4  80
  0  77  1  89  2  54  3  48  4  54
  0  27  1  95  2  49  3  40  4  76
  0  84  1  7  2  12  3  5  4  1
  0  61  1  49  2  3  3  9  4  62
  0  99  1  59  2  71  3  49  4  71
  0  49  1  11  2  72  3  33  4  31
  0  65  1  23  2  39  3  12  4  41
  0  66  1  21  2  21  3  35  4  16
  0  27  1  92  2  86  3  79  4  64
